num_offers = 30;
num_halls = 10;
start=[22,8,56,20,14,65,3,46,37,71,39,8,89,60,19,32,64,45,48,25,4,36,7,42,64,19,15,49,35,18];
end=[72,36,94,92,99,100,89,66,89,99,49,29,98,90,84,66,91,61,66,78,71,65,41,79,98,20,79,83,37,27];
price=[2573,1022,3214,3653,4738,2239,8406,962,4235,2765,1022,2040,110,2731,2024,2663,1321,1585,211,3035,2901,2482,516,2206,949,136,2200,2245,217,580];
requirement=[974,822,293,204,218,420,581,635,533,297,495,541,934,265,202,203,559,430,730,948,510,581,675,231,717,566,403,328,489,398];
capacity=[932,891,952,686,805,221,914,358,230,665];
